NAME 
ROWS
 N  OBJ
 L  R0      
 E  R1      
 E  R2      
 E  R3      
 E  R4      
 E  R5      
 E  R6      
 E  R7      
 E  R8      
 E  R9      
 E  R10     
 E  R11     
 E  R12     
 E  R13     
 E  R14     
 E  R15     
 E  R16     
 E  R17     
 E  R18     
 E  R19     
 E  R20     
 E  R21     
 E  R22     
 E  R23     
 E  R24     
 E  R25     
COLUMNS
    MARKER    'MARKER'                 'INTORG'
    I0(6)     OBJ       128
    I0(6)     R0        -8
    I0(6)     R2        -1
    I0(6)     R7        17
    I0(6)     R8        2
    I0(6)     R12       1
    I0(6)     R25       1
    I1(7)     OBJ       6
    I1(7)     R0        64
    I1(7)     R1        11
    I1(7)     R2        14
    I1(7)     R6        8
    I1(7)     R8        14
    I1(7)     R12       15
    I1(7)     R25       1
    I2(10)    OBJ       -146
    I2(10)    R0        -137
    I2(10)    R1        9
    I2(10)    R2        13
    I2(10)    R4        10
    I2(10)    R5        8
    I2(10)    R7        10
    I2(10)    R9        9
    I2(10)    R11       19
    I2(10)    R12       1
    I2(10)    R25       1
    I3(8)     OBJ       -77
    I3(8)     R0        91
    I3(8)     R2        6
    I3(8)     R3        10
    I3(8)     R5        10
    I3(8)     R6        1
    I3(8)     R8        14
    I3(8)     R9        7
    I3(8)     R25       1
    I4(7)     OBJ       84
    I4(7)     R0        186
    I4(7)     R1        10
    I4(7)     R3        15
    I4(7)     R4        6
    I4(7)     R9        1
    I4(7)     R12       2
    I4(7)     R25       1
    I5(7)     OBJ       -22
    I5(7)     R0        -148
    I5(7)     R4        16
    I5(7)     R7        6
    I5(7)     R10       11
    I5(7)     R11       9
    I5(7)     R12       5
    I5(7)     R25       1
    I6(8)     OBJ       -17
    I6(8)     R0        14
    I6(8)     R4        9
    I6(8)     R5        11
    I6(8)     R7        8
    I6(8)     R8        15
    I6(8)     R10       19
    I6(8)     R11       8
    I6(8)     R25       1
    I7(7)     OBJ       -186
    I7(7)     R0        47
    I7(7)     R1        4
    I7(7)     R3        15
    I7(7)     R5        8
    I7(7)     R11       9
    I7(7)     R12       -1
    I7(7)     R25       1
    I8(9)     OBJ       -185
    I8(9)     R0        137
    I8(9)     R1        3
    I8(9)     R2        13
    I8(9)     R3        14
    I8(9)     R5        7
    I8(9)     R8        -1
    I8(9)     R10       17
    I8(9)     R11       13
    I8(9)     R25       1
    I9(11)    OBJ       -109
    I9(11)    R0        158
    I9(11)    R1        4
    I9(11)    R2        16
    I9(11)    R3        10
    I9(11)    R4        5
    I9(11)    R5        -1
    I9(11)    R7        9
    I9(11)    R8        6
    I9(11)    R10       16
    I9(11)    R12       9
    I9(11)    R25       1
    I10(9)    OBJ       -6
    I10(9)    R0        173
    I10(9)    R2        3
    I10(9)    R3        15
    I10(9)    R5        16
    I10(9)    R6        10
    I10(9)    R10       15
    I10(9)    R11       16
    I10(9)    R12       2
    I10(9)    R25       1
    I11(9)    OBJ       -157
    I11(9)    R0        7
    I11(9)    R2        10
    I11(9)    R3        9
    I11(9)    R4        13
    I11(9)    R5        7
    I11(9)    R6        13
    I11(9)    R9        19
    I11(9)    R12       2
    I11(9)    R25       1
    MARKER    'MARKER'                 'INTEND'
    C12(18)   OBJ       -9
    C12(18)   R0        9
    C12(18)   R2        4
    C12(18)   R3        6
    C12(18)   R5        1
    C12(18)   R7        10
    C12(18)   R9        13
    C12(18)   R10       -1
    C12(18)   R11       10
    C12(18)   R12       14
    C12(18)   R13       4
    C12(18)   R14       17
    C12(18)   R16       -1
    C12(18)   R17       19
    C12(18)   R18       19
    C12(18)   R20       19
    C12(18)   R21       12
    C12(18)   R22       15
    C12(18)   R23       8
    C13(14)   OBJ       4
    C13(14)   R0        -6
    C13(14)   R1        4
    C13(14)   R2        4
    C13(14)   R3        1
    C13(14)   R5        14
    C13(14)   R6        16
    C13(14)   R8        11
    C13(14)   R9        -1
    C13(14)   R14       1
    C13(14)   R17       8
    C13(14)   R19       1
    C13(14)   R20       5
    C13(14)   R21       11
    C13(14)   R22       -1
    C14(10)   OBJ       2
    C14(10)   R0        3
    C14(10)   R7        1
    C14(10)   R9        15
    C14(10)   R12       8
    C14(10)   R14       16
    C14(10)   R15       6
    C14(10)   R16       17
    C14(10)   R18       4
    C14(10)   R19       2
    C14(10)   R23       17
    C15(14)   OBJ       -3
    C15(14)   R0        -6
    C15(14)   R1        -1
    C15(14)   R2        11
    C15(14)   R4        10
    C15(14)   R6        -1
    C15(14)   R8        13
    C15(14)   R10       6
    C15(14)   R13       6
    C15(14)   R18       -1
    C15(14)   R19       16
    C15(14)   R20       18
    C15(14)   R22       13
    C15(14)   R23       4
    C15(14)   R24       16
    C16(11)   OBJ       3
    C16(11)   R0        4
    C16(11)   R3        7
    C16(11)   R4        3
    C16(11)   R6        6
    C16(11)   R7        7
    C16(11)   R8        16
    C16(11)   R17       16
    C16(11)   R18       14
    C16(11)   R21       6
    C16(11)   R23       12
    C16(11)   R24       17
    C17(16)   OBJ       -10
    C17(16)   R0        -5
    C17(16)   R2        11
    C17(16)   R4        14
    C17(16)   R8        14
    C17(16)   R9        12
    C17(16)   R13       17
    C17(16)   R14       16
    C17(16)   R15       18
    C17(16)   R16       10
    C17(16)   R17       -1
    C17(16)   R18       16
    C17(16)   R19       5
    C17(16)   R20       12
    C17(16)   R21       10
    C17(16)   R23       5
    C17(16)   R24       1
    C18(19)   R0        -5
    C18(19)   R2        7
    C18(19)   R3        11
    C18(19)   R4        7
    C18(19)   R5        5
    C18(19)   R7        14
    C18(19)   R8        8
    C18(19)   R9        9
    C18(19)   R11       17
    C18(19)   R12       -1
    C18(19)   R13       5
    C18(19)   R14       15
    C18(19)   R15       4
    C18(19)   R16       17
    C18(19)   R19       12
    C18(19)   R20       19
    C18(19)   R22       14
    C18(19)   R23       18
    C18(19)   R24       7
    C19(15)   OBJ       -9
    C19(15)   R0        -3
    C19(15)   R3        -1
    C19(15)   R4        12
    C19(15)   R5        10
    C19(15)   R7        1
    C19(15)   R8        12
    C19(15)   R10       15
    C19(15)   R11       5
    C19(15)   R13       2
    C19(15)   R17       1
    C19(15)   R18       9
    C19(15)   R19       12
    C19(15)   R21       3
    C19(15)   R22       -1
    C19(15)   R24       12
    C20(11)   OBJ       -3
    C20(11)   R0        4
    C20(11)   R1        13
    C20(11)   R3        6
    C20(11)   R5        12
    C20(11)   R6        12
    C20(11)   R7        10
    C20(11)   R15       6
    C20(11)   R17       9
    C20(11)   R20       18
    C20(11)   R21       4
    C20(11)   R23       19
    C21(13)   OBJ       -1
    C21(13)   R0        -2
    C21(13)   R3        13
    C21(13)   R4        14
    C21(13)   R6        1
    C21(13)   R7        10
    C21(13)   R8        5
    C21(13)   R9        16
    C21(13)   R11       12
    C21(13)   R13       12
    C21(13)   R14       9
    C21(13)   R15       9
    C21(13)   R21       6
    C21(13)   R23       3
    C22(12)   OBJ       -6
    C22(12)   R0        -4
    C22(12)   R2        4
    C22(12)   R9        19
    C22(12)   R10       2
    C22(12)   R11       11
    C22(12)   R12       -1
    C22(12)   R13       6
    C22(12)   R17       19
    C22(12)   R20       6
    C22(12)   R21       14
    C22(12)   R22       7
    C22(12)   R24       13
    C23(14)   OBJ       6
    C23(14)   R0        3
    C23(14)   R3        8
    C23(14)   R5        5
    C23(14)   R6        11
    C23(14)   R8        3
    C23(14)   R9        8
    C23(14)   R12       -1
    C23(14)   R15       2
    C23(14)   R17       4
    C23(14)   R18       4
    C23(14)   R19       7
    C23(14)   R20       15
    C23(14)   R23       -1
    C23(14)   R24       15
    C24(10)   OBJ       4
    C24(10)   R0        5
    C24(10)   R1        18
    C24(10)   R5        12
    C24(10)   R7        19
    C24(10)   R8        15
    C24(10)   R13       19
    C24(10)   R15       12
    C24(10)   R17       19
    C24(10)   R20       16
    C24(10)   R23       -1
    C25(1)    R1        1
    C26(1)    R2        1
    C27(1)    R3        1
    C28(1)    R4        1
    C29(1)    R5        1
    C30(1)    R6        1
    C31(1)    R7        1
    C32(1)    R8        1
    C33(1)    R9        1
    C34(1)    R10       1
    C35(1)    R11       1
    C36(1)    R12       1
    C37(1)    R13       1
    C38(1)    R14       1
    C39(1)    R15       1
    C40(1)    R16       1
    C41(1)    R17       1
    C42(1)    R18       1
    C43(1)    R19       1
    C44(1)    R20       1
    C45(1)    R21       1
    C46(1)    R22       1
    C47(1)    R23       1
    C48(1)    R24       1
    C49(1)    R25       1
RHS
    RHS1      R0        3.4090422332929387e+02
    RHS1      R1        67
    RHS1      R2        79
    RHS1      R3        58
    RHS1      R4        68
    RHS1      R5        87
    RHS1      R6        93
    RHS1      R7        80
    RHS1      R8        71
    RHS1      R9        84
    RHS1      R10       54
    RHS1      R11       82
    RHS1      R12       70
    RHS1      R13       73
    RHS1      R14       89
    RHS1      R15       88
    RHS1      R16       65
    RHS1      R17       54
    RHS1      R18       72
    RHS1      R19       62
    RHS1      R20       88
    RHS1      R21       79
    RHS1      R22       67
    RHS1      R23       85
    RHS1      R24       64
    RHS1      R25       4
BOUNDS
 UP BND1      I0(6)     2
 UP BND1      I1(7)     2
 UP BND1      I2(10)    2
 UP BND1      I3(8)     2
 UP BND1      I4(7)     2
 UP BND1      I5(7)     2
 UP BND1      I6(8)     2
 UP BND1      I7(7)     2
 UP BND1      I8(9)     2
 UP BND1      I9(11)    2
 UP BND1      I10(9)    2
 UP BND1      I11(9)    2
ENDATA
